2 30
302 334 
0 87 81 98 99 48 24 1
1 7 9 62 52 76 23 1
2 84 83 56 62 80 63 1
3 87 92 46 39 48 55 1
4 18 21 64 72 51 70 1
5 85 79 32 25 92 13 2
6 1 10 43 37 53 99 2
7 15 21 53 59 75 22 1
8 57 66 42 41 88 40 1
9 75 71 26 26 19 38 1
10 16 21 65 67 21 92 1
11 88 88 102 99 47 60 1
12 22 29 79 80 69 84 2
13 11 21 61 68 85 13 2
14 73 74 103 100 53 96 1
15 37 46 61 68 12 88 1
16 54 62 39 41 74 24 2
17 7 9 12 4 19 21 2
18 98 98 27 21 94 7 2
19 10 15 91 90 36 18 2
20 64 58 56 65 49 56 1
21 12 5 61 71 16 7 1
22 27 21 77 72 50 85 2
23 93 88 65 62 88 58 1
24 61 62 78 80 41 94 2
25 84 89 10 4 87 25 1
26 31 27 75 70 11 96 2
27 2 9 49 47 41 56 2
28 85 83 1 5 23 17 2
29 68 76 37 47 36 19 2
